DIMENSION: 28
EDGE_WEIGHT_TYPE: EXPLICIT
EDGE_WEIGHT_FORMAT: FULL_MATRIX
EDGE_WEIGHT_SECTION:
32767 43 27 73 32767 16 32767 32767 32767 32767 44 32767 32767 98 10 32767 32767 32767 14 32767 32767 32767 32767 32767 32767 46 32767 71 
43 32767 75 79 32767 32767 32767 73 32767 32767 32767 32767 32767 32767 32767 10 32767 32767 32767 34 32767 32767 14 2 32767 32767 32767 14 
27 75 32767 32767 43 32767 16 58 32767 32767 32767 32767 39 89 32767 32767 32767 32767 32767 24 61 32767 36 32767 32767 56 32767 32767 
73 79 32767 32767 32767 32767 32767 32767 32767 32767 32767 32767 37 32767 25 5 32767 32767 32767 32767 32767 32767 32767 15 32767 32767 74 78 
32767 32767 43 32767 32767 14 27 32767 32767 32767 32767 32767 32767 32767 32767 4 32767 27 63 32767 32767 90 32767 32767 32767 32767 40 81 
16 32767 32767 32767 14 32767 24 87 41 32767 32767 27 32767 32767 32767 30 32767 32767 58 44 96 32767 10 32767 32767 32767 32767 57 
32767 32767 16 32767 27 24 32767 32767 32767 32767 32767 11 32767 90 6 32767 32767 32767 32767 32767 32767 32767 10 32767 67 47 32767 32767 
32767 73 58 32767 32767 87 32767 32767 56 32767 32767 32767 32767 32767 4 32767 88 57 96 32767 32767 32767 32767 32767 32767 32767 32767 32767 
32767 32767 32767 32767 32767 41 32767 56 32767 25 32767 32767 32767 54 32767 32767 32767 32767 32767 32767 32767 32767 32767 32767 69 14 63 3 
32767 32767 32767 32767 32767 32767 32767 32767 25 32767 32767 32767 68 32767 32767 32767 32767 32767 32767 32767 32767 32767 19 57 10 32767 32767 92 
44 32767 32767 32767 32767 32767 32767 32767 32767 32767 32767 32767 13 32767 27 14 32767 52 32767 32767 32767 24 32767 32767 32767 32767 32767 32767 
32767 32767 32767 32767 32767 27 11 32767 32767 32767 32767 32767 32767 32767 32767 32767 32767 32 32767 32767 32767 32767 32767 32767 32767 32767 32767 33 
32767 32767 39 37 32767 32767 32767 32767 32767 68 13 32767 32767 32767 32767 32767 72 32767 32767 2 54 12 32767 32767 32767 32767 47 7 
98 32767 89 32767 32767 32767 90 32767 54 32767 32767 32767 32767 32767 32767 32767 32767 19 64 32767 32767 100 71 32767 32767 32767 32767 32767 
10 32767 32767 25 32767 32767 6 4 32767 32767 27 32767 32767 32767 32767 32767 7 32767 22 32767 92 32767 32767 32767 32767 32767 32767 32767 
32767 10 32767 5 4 30 32767 32767 32767 32767 14 32767 32767 32767 32767 32767 47 32767 32767 94 32767 10 32767 32767 32767 32767 32767 32767 
32767 32767 32767 32767 32767 32767 32767 88 32767 32767 32767 32767 72 32767 7 47 32767 54 32767 32767 32767 33 22 32767 32767 33 32767 32767 
32767 32767 32767 32767 27 32767 32767 57 32767 32767 52 32 32767 19 32767 32767 54 32767 32767 32767 32767 32767 32767 32767 32767 32767 25 50 
14 32767 32767 32767 63 58 32767 96 32767 32767 32767 32767 32767 64 22 32767 32767 32767 32767 33 25 32767 32767 32767 32767 32767 32767 44 
32767 34 24 32767 32767 44 32767 32767 32767 32767 32767 32767 2 32767 32767 94 32767 32767 33 32767 80 32767 65 32767 32767 32767 32767 32767 
32767 32767 61 32767 32767 96 32767 32767 32767 32767 32767 32767 54 32767 92 32767 32767 32767 25 80 32767 32767 47 32767 32767 32767 32767 32767 
32767 32767 32767 32767 90 32767 32767 32767 32767 32767 24 32767 12 100 32767 10 33 32767 32767 32767 32767 32767 32767 32767 32767 32767 40 32767 
32767 14 36 32767 32767 10 10 32767 32767 19 32767 32767 32767 71 32767 32767 22 32767 32767 65 47 32767 32767 32767 32767 32767 13 91 
32767 2 32767 15 32767 32767 32767 32767 32767 57 32767 32767 32767 32767 32767 32767 32767 32767 32767 32767 32767 32767 32767 32767 32767 46 32767 32767 
32767 32767 32767 32767 32767 32767 67 32767 69 10 32767 32767 32767 32767 32767 32767 32767 32767 32767 32767 32767 32767 32767 32767 32767 54 32767 32767 
46 32767 56 32767 32767 32767 47 32767 14 32767 32767 32767 32767 32767 32767 32767 33 32767 32767 32767 32767 32767 32767 46 54 32767 32767 32767 
32767 32767 32767 74 40 32767 32767 32767 63 32767 32767 32767 47 32767 32767 32767 32767 25 32767 32767 32767 40 13 32767 32767 32767 32767 32767 
71 14 32767 78 81 57 32767 32767 3 92 32767 33 7 32767 32767 32767 32767 50 44 32767 32767 32767 91 32767 32767 32767 32767 32767 
EOF